100 1 2 100 100 100 100 100 100
1 100 2 1 100 100 100 100 100 
2 2 100 100 1 3 100 100 100 
100 1 100 100 2 100 2 100 100 
100 100 1 2 100 2 3 100 100 
100 100 3 100 2 100 100 4 100
100 100 100 2 3 100 100 100 2 
100 100 100 100 100 4 100 100 2  
100 100 100 100 100 100 2 2 100 